50

100 5 303
99 23 417
95 3 306
94 19 435
87 14 307
85 23 272
85 4 365
83 11 402
81 14 354
81 9 356
80 18 244
80 2 278
77 21 418
76 1 398
75 7 257
74 14 302
73 4 390
73 12 317
72 7 405
66 16 367
63 4 248
60 15 353
52 15 319
50 15 411
47 6 436
45 11 290
44 11 311
43 1 310
39 10 255
39 11 439
38 4 408
38 7 377
35 4 342
34 9 448
33 5 157
32 5 434
25 1 91
25 8 166
23 3 422
20 5 230
17 3 104
15 3 444
15 3 201
14 2 428
12 4 379
11 2 136
10 2 270
10 2 107
8 1 206
8 2 379
